% Auto-generated by scripts/generate_dzn.py
% problem_type   = nonogram
% instance       = nonogram_18
% source_json    = instances_json/0_low_blowup/nonogram_18.json
% blowup         = 1.0892857142857142
% representation = DFA

mode = 0;

height = 15;
width = 15;
Q = 15;
S = 2;
row_q0 = [1, 1, 1, 1, 1, 1, 1, 1, 1, 1, 1, 1, 1, 1, 1];
row_F = [{11}, {13}, {10}, {13}, {13}, {13}, {11}, {14}, {7}, {11}, {12}, {11}, {9}, {12}, {11}];
col_q0 = [1, 1, 1, 1, 1, 1, 1, 1, 1, 1, 1, 1, 1, 1, 1];
col_F = [{14}, {11}, {12}, {10}, {9}, {14}, {10}, {13}, {14}, {8}, {10}, {11}, {10}, {9}, {10}];
row_d_dfa = array3d(1..15, 1..15, 1..2, [
  % k = 1
    1, 2,
    3, 12,
    3, 4,
    5, 12,
    5, 6,
    7, 12,
    7, 8,
    12, 9,
    10, 12,
    10, 11,
    11, 12,
    12, 12,
    0, 0,
    0, 0,
    0, 0,

  % k = 2
    1, 2,
    14, 3,
    4, 14,
    4, 5,
    6, 14,
    6, 7,
    14, 8,
    9, 14,
    9, 10,
    14, 11,
    14, 12,
    14, 13,
    13, 14,
    14, 14,
    0, 0,

  % k = 3
    1, 2,
    3, 11,
    3, 4,
    11, 5,
    11, 6,
    7, 11,
    7, 8,
    9, 11,
    9, 10,
    10, 11,
    11, 11,
    0, 0,
    0, 0,
    0, 0,
    0, 0,

  % k = 4
    1, 2,
    14, 3,
    4, 14,
    4, 5,
    6, 14,
    6, 7,
    8, 14,
    8, 9,
    10, 14,
    10, 11,
    14, 12,
    14, 13,
    13, 14,
    14, 14,
    0, 0,

  % k = 5
    1, 2,
    14, 3,
    4, 14,
    4, 5,
    6, 14,
    6, 7,
    8, 14,
    8, 9,
    14, 10,
    14, 11,
    12, 14,
    12, 13,
    13, 14,
    14, 14,
    0, 0,

  % k = 6
    1, 2,
    14, 3,
    4, 14,
    4, 5,
    14, 6,
    14, 7,
    14, 8,
    9, 14,
    9, 10,
    14, 11,
    12, 14,
    12, 13,
    13, 14,
    14, 14,
    0, 0,

  % k = 7
    1, 2,
    12, 3,
    12, 4,
    5, 12,
    5, 6,
    7, 12,
    7, 8,
    12, 9,
    10, 12,
    10, 11,
    11, 12,
    12, 12,
    0, 0,
    0, 0,
    0, 0,

  % k = 8
    1, 2,
    3, 15,
    3, 4,
    15, 5,
    15, 6,
    15, 7,
    15, 8,
    15, 9,
    10, 15,
    10, 11,
    12, 15,
    12, 13,
    15, 14,
    14, 15,
    15, 15,

  % k = 9
    1, 2,
    8, 3,
    4, 8,
    4, 5,
    8, 6,
    8, 7,
    7, 8,
    8, 8,
    0, 0,
    0, 0,
    0, 0,
    0, 0,
    0, 0,
    0, 0,
    0, 0,

  % k = 10
    1, 2,
    12, 3,
    4, 12,
    4, 5,
    6, 12,
    6, 7,
    8, 12,
    8, 9,
    10, 12,
    10, 11,
    11, 12,
    12, 12,
    0, 0,
    0, 0,
    0, 0,

  % k = 11
    1, 2,
    13, 3,
    13, 4,
    13, 5,
    6, 13,
    6, 7,
    8, 13,
    8, 9,
    10, 13,
    10, 11,
    13, 12,
    12, 13,
    13, 13,
    0, 0,
    0, 0,

  % k = 12
    1, 2,
    3, 12,
    3, 4,
    5, 12,
    5, 6,
    7, 12,
    7, 8,
    12, 9,
    10, 12,
    10, 11,
    11, 12,
    12, 12,
    0, 0,
    0, 0,
    0, 0,

  % k = 13
    1, 2,
    3, 10,
    3, 4,
    10, 5,
    10, 6,
    10, 7,
    8, 10,
    8, 9,
    9, 10,
    10, 10,
    0, 0,
    0, 0,
    0, 0,
    0, 0,
    0, 0,

  % k = 14
    1, 2,
    13, 3,
    13, 4,
    5, 13,
    5, 6,
    13, 7,
    8, 13,
    8, 9,
    13, 10,
    11, 13,
    11, 12,
    12, 13,
    13, 13,
    0, 0,
    0, 0,

  % k = 15
    1, 2,
    3, 12,
    3, 4,
    12, 5,
    6, 12,
    6, 7,
    8, 12,
    8, 9,
    12, 10,
    12, 11,
    11, 12,
    12, 12,
    0, 0,
    0, 0,
    0, 0
]);
row_d_nfa = array3d(1..15, 1..15, 1..2, [
  % k = 1
    {}, {},
    {}, {},
    {}, {},
    {}, {},
    {}, {},
    {}, {},
    {}, {},
    {}, {},
    {}, {},
    {}, {},
    {}, {},
    {}, {},
    {}, {},
    {}, {},
    {}, {},

  % k = 2
    {}, {},
    {}, {},
    {}, {},
    {}, {},
    {}, {},
    {}, {},
    {}, {},
    {}, {},
    {}, {},
    {}, {},
    {}, {},
    {}, {},
    {}, {},
    {}, {},
    {}, {},

  % k = 3
    {}, {},
    {}, {},
    {}, {},
    {}, {},
    {}, {},
    {}, {},
    {}, {},
    {}, {},
    {}, {},
    {}, {},
    {}, {},
    {}, {},
    {}, {},
    {}, {},
    {}, {},

  % k = 4
    {}, {},
    {}, {},
    {}, {},
    {}, {},
    {}, {},
    {}, {},
    {}, {},
    {}, {},
    {}, {},
    {}, {},
    {}, {},
    {}, {},
    {}, {},
    {}, {},
    {}, {},

  % k = 5
    {}, {},
    {}, {},
    {}, {},
    {}, {},
    {}, {},
    {}, {},
    {}, {},
    {}, {},
    {}, {},
    {}, {},
    {}, {},
    {}, {},
    {}, {},
    {}, {},
    {}, {},

  % k = 6
    {}, {},
    {}, {},
    {}, {},
    {}, {},
    {}, {},
    {}, {},
    {}, {},
    {}, {},
    {}, {},
    {}, {},
    {}, {},
    {}, {},
    {}, {},
    {}, {},
    {}, {},

  % k = 7
    {}, {},
    {}, {},
    {}, {},
    {}, {},
    {}, {},
    {}, {},
    {}, {},
    {}, {},
    {}, {},
    {}, {},
    {}, {},
    {}, {},
    {}, {},
    {}, {},
    {}, {},

  % k = 8
    {}, {},
    {}, {},
    {}, {},
    {}, {},
    {}, {},
    {}, {},
    {}, {},
    {}, {},
    {}, {},
    {}, {},
    {}, {},
    {}, {},
    {}, {},
    {}, {},
    {}, {},

  % k = 9
    {}, {},
    {}, {},
    {}, {},
    {}, {},
    {}, {},
    {}, {},
    {}, {},
    {}, {},
    {}, {},
    {}, {},
    {}, {},
    {}, {},
    {}, {},
    {}, {},
    {}, {},

  % k = 10
    {}, {},
    {}, {},
    {}, {},
    {}, {},
    {}, {},
    {}, {},
    {}, {},
    {}, {},
    {}, {},
    {}, {},
    {}, {},
    {}, {},
    {}, {},
    {}, {},
    {}, {},

  % k = 11
    {}, {},
    {}, {},
    {}, {},
    {}, {},
    {}, {},
    {}, {},
    {}, {},
    {}, {},
    {}, {},
    {}, {},
    {}, {},
    {}, {},
    {}, {},
    {}, {},
    {}, {},

  % k = 12
    {}, {},
    {}, {},
    {}, {},
    {}, {},
    {}, {},
    {}, {},
    {}, {},
    {}, {},
    {}, {},
    {}, {},
    {}, {},
    {}, {},
    {}, {},
    {}, {},
    {}, {},

  % k = 13
    {}, {},
    {}, {},
    {}, {},
    {}, {},
    {}, {},
    {}, {},
    {}, {},
    {}, {},
    {}, {},
    {}, {},
    {}, {},
    {}, {},
    {}, {},
    {}, {},
    {}, {},

  % k = 14
    {}, {},
    {}, {},
    {}, {},
    {}, {},
    {}, {},
    {}, {},
    {}, {},
    {}, {},
    {}, {},
    {}, {},
    {}, {},
    {}, {},
    {}, {},
    {}, {},
    {}, {},

  % k = 15
    {}, {},
    {}, {},
    {}, {},
    {}, {},
    {}, {},
    {}, {},
    {}, {},
    {}, {},
    {}, {},
    {}, {},
    {}, {},
    {}, {},
    {}, {},
    {}, {},
    {}, {}
]);
col_d_dfa = array3d(1..15, 1..15, 1..2, [
  % k = 1
    1, 2,
    3, 15,
    3, 4,
    5, 15,
    5, 6,
    7, 15,
    7, 8,
    9, 15,
    9, 10,
    15, 11,
    15, 12,
    13, 15,
    13, 14,
    14, 15,
    15, 15,

  % k = 2
    1, 2,
    12, 3,
    4, 12,
    4, 5,
    12, 6,
    12, 7,
    12, 8,
    12, 9,
    10, 12,
    10, 11,
    11, 12,
    12, 12,
    0, 0,
    0, 0,
    0, 0,

  % k = 3
    1, 2,
    13, 3,
    13, 4,
    5, 13,
    5, 6,
    13, 7,
    8, 13,
    8, 9,
    13, 10,
    11, 13,
    11, 12,
    12, 13,
    13, 13,
    0, 0,
    0, 0,

  % k = 4
    1, 2,
    3, 11,
    3, 4,
    5, 11,
    5, 6,
    11, 7,
    8, 11,
    8, 9,
    11, 10,
    10, 11,
    11, 11,
    0, 0,
    0, 0,
    0, 0,
    0, 0,

  % k = 5
    1, 2,
    10, 3,
    10, 4,
    5, 10,
    5, 6,
    10, 7,
    8, 10,
    8, 9,
    9, 10,
    10, 10,
    0, 0,
    0, 0,
    0, 0,
    0, 0,
    0, 0,

  % k = 6
    1, 2,
    15, 3,
    15, 4,
    5, 15,
    5, 6,
    7, 15,
    7, 8,
    9, 15,
    9, 10,
    15, 11,
    15, 12,
    15, 13,
    15, 14,
    14, 15,
    15, 15,

  % k = 7
    1, 2,
    3, 11,
    3, 4,
    11, 5,
    11, 6,
    11, 7,
    8, 11,
    8, 9,
    11, 10,
    10, 11,
    11, 11,
    0, 0,
    0, 0,
    0, 0,
    0, 0,

  % k = 8
    1, 2,
    3, 14,
    3, 4,
    5, 14,
    5, 6,
    14, 7,
    14, 8,
    14, 9,
    14, 10,
    11, 14,
    11, 12,
    14, 13,
    13, 14,
    14, 14,
    0, 0,

  % k = 9
    1, 2,
    15, 3,
    15, 4,
    5, 15,
    5, 6,
    7, 15,
    7, 8,
    15, 9,
    10, 15,
    10, 11,
    15, 12,
    15, 13,
    15, 14,
    14, 15,
    15, 15,

  % k = 10
    1, 2,
    3, 9,
    3, 4,
    9, 5,
    9, 6,
    7, 9,
    7, 8,
    8, 9,
    9, 9,
    0, 0,
    0, 0,
    0, 0,
    0, 0,
    0, 0,
    0, 0,

  % k = 11
    1, 2,
    11, 3,
    4, 11,
    4, 5,
    6, 11,
    6, 7,
    11, 8,
    9, 11,
    9, 10,
    10, 11,
    11, 11,
    0, 0,
    0, 0,
    0, 0,
    0, 0,

  % k = 12
    1, 2,
    12, 3,
    4, 12,
    4, 5,
    12, 6,
    12, 7,
    8, 12,
    8, 9,
    10, 12,
    10, 11,
    11, 12,
    12, 12,
    0, 0,
    0, 0,
    0, 0,

  % k = 13
    1, 2,
    3, 11,
    3, 4,
    11, 5,
    11, 6,
    7, 11,
    7, 8,
    9, 11,
    9, 10,
    10, 11,
    11, 11,
    0, 0,
    0, 0,
    0, 0,
    0, 0,

  % k = 14
    1, 2,
    10, 3,
    10, 4,
    5, 10,
    5, 6,
    7, 10,
    7, 8,
    10, 9,
    9, 10,
    10, 10,
    0, 0,
    0, 0,
    0, 0,
    0, 0,
    0, 0,

  % k = 15
    1, 2,
    3, 11,
    3, 4,
    11, 5,
    11, 6,
    11, 7,
    8, 11,
    8, 9,
    11, 10,
    10, 11,
    11, 11,
    0, 0,
    0, 0,
    0, 0,
    0, 0
]);
col_d_nfa = array3d(1..15, 1..15, 1..2, [
  % k = 1
    {}, {},
    {}, {},
    {}, {},
    {}, {},
    {}, {},
    {}, {},
    {}, {},
    {}, {},
    {}, {},
    {}, {},
    {}, {},
    {}, {},
    {}, {},
    {}, {},
    {}, {},

  % k = 2
    {}, {},
    {}, {},
    {}, {},
    {}, {},
    {}, {},
    {}, {},
    {}, {},
    {}, {},
    {}, {},
    {}, {},
    {}, {},
    {}, {},
    {}, {},
    {}, {},
    {}, {},

  % k = 3
    {}, {},
    {}, {},
    {}, {},
    {}, {},
    {}, {},
    {}, {},
    {}, {},
    {}, {},
    {}, {},
    {}, {},
    {}, {},
    {}, {},
    {}, {},
    {}, {},
    {}, {},

  % k = 4
    {}, {},
    {}, {},
    {}, {},
    {}, {},
    {}, {},
    {}, {},
    {}, {},
    {}, {},
    {}, {},
    {}, {},
    {}, {},
    {}, {},
    {}, {},
    {}, {},
    {}, {},

  % k = 5
    {}, {},
    {}, {},
    {}, {},
    {}, {},
    {}, {},
    {}, {},
    {}, {},
    {}, {},
    {}, {},
    {}, {},
    {}, {},
    {}, {},
    {}, {},
    {}, {},
    {}, {},

  % k = 6
    {}, {},
    {}, {},
    {}, {},
    {}, {},
    {}, {},
    {}, {},
    {}, {},
    {}, {},
    {}, {},
    {}, {},
    {}, {},
    {}, {},
    {}, {},
    {}, {},
    {}, {},

  % k = 7
    {}, {},
    {}, {},
    {}, {},
    {}, {},
    {}, {},
    {}, {},
    {}, {},
    {}, {},
    {}, {},
    {}, {},
    {}, {},
    {}, {},
    {}, {},
    {}, {},
    {}, {},

  % k = 8
    {}, {},
    {}, {},
    {}, {},
    {}, {},
    {}, {},
    {}, {},
    {}, {},
    {}, {},
    {}, {},
    {}, {},
    {}, {},
    {}, {},
    {}, {},
    {}, {},
    {}, {},

  % k = 9
    {}, {},
    {}, {},
    {}, {},
    {}, {},
    {}, {},
    {}, {},
    {}, {},
    {}, {},
    {}, {},
    {}, {},
    {}, {},
    {}, {},
    {}, {},
    {}, {},
    {}, {},

  % k = 10
    {}, {},
    {}, {},
    {}, {},
    {}, {},
    {}, {},
    {}, {},
    {}, {},
    {}, {},
    {}, {},
    {}, {},
    {}, {},
    {}, {},
    {}, {},
    {}, {},
    {}, {},

  % k = 11
    {}, {},
    {}, {},
    {}, {},
    {}, {},
    {}, {},
    {}, {},
    {}, {},
    {}, {},
    {}, {},
    {}, {},
    {}, {},
    {}, {},
    {}, {},
    {}, {},
    {}, {},

  % k = 12
    {}, {},
    {}, {},
    {}, {},
    {}, {},
    {}, {},
    {}, {},
    {}, {},
    {}, {},
    {}, {},
    {}, {},
    {}, {},
    {}, {},
    {}, {},
    {}, {},
    {}, {},

  % k = 13
    {}, {},
    {}, {},
    {}, {},
    {}, {},
    {}, {},
    {}, {},
    {}, {},
    {}, {},
    {}, {},
    {}, {},
    {}, {},
    {}, {},
    {}, {},
    {}, {},
    {}, {},

  % k = 14
    {}, {},
    {}, {},
    {}, {},
    {}, {},
    {}, {},
    {}, {},
    {}, {},
    {}, {},
    {}, {},
    {}, {},
    {}, {},
    {}, {},
    {}, {},
    {}, {},
    {}, {},

  % k = 15
    {}, {},
    {}, {},
    {}, {},
    {}, {},
    {}, {},
    {}, {},
    {}, {},
    {}, {},
    {}, {},
    {}, {},
    {}, {},
    {}, {},
    {}, {},
    {}, {},
    {}, {}
]);
